r = [
0,68,67,132,113,123,137,150,114,93,85,50,144,54,52,109,41,82,6,70,36,12,39,83,79,86,0
];
p = [
0,7,13,28,9,8,26,1,7,4,29,9,8,3,5,4,22,3,29,8,14,21,13,10,14,28,0
];
e = [
0,7,4,9,12,6,16,7,13,2,3,3,6,4,4,4,20,9,6,1,7,5,10,16,16,19,0
];
d = [
0,214,214,299,272,273,296,313,288,267,244,204,298,218,226,273,196,234,174,239,196,171,196,257,228,256,314
];
d_bar = [
0,215,215,302,273,274,299,314,289,268,247,205,299,219,227,274,198,235,177,240,197,173,197,258,229,259,314
];
w = [
0,7,4,3,12,6,5.333333333,7,13,2,1,3,6,4,4,4,10,9,2,1,7,2.5,10,16,16,6.333333333,0
];
